NAME : berlin52.tsp
TYPE : TOUR
DIMENSION : 52
TOUR_LENGTH : 8405.357913332553
TOUR_SECTION
1
22
49
32
36
35
34
39
40
38
37
48
24
5
15
6
4
25
46
44
16
50
20
23
31
18
3
45
19
41
8
9
10
43
33
51
11
52
13
14
47
26
27
28
12
29
30
42
7
2
21
17
-1
